(declare-const c_0 Real)
(declare-const c_1 Real)
(declare-const c_2 Real)
(declare-const c_3 Real)
(declare-const c_4 Real)
(declare-const c_5 Real)
(declare-const c_6 Real)
(declare-const c_7 Real)
(declare-const c_8 Real)
(declare-const c_9 Real)
(declare-const c_10 Real)
(declare-const c_11 Real)
(declare-const c_12 Real)
(declare-const c_13 Real)
(declare-const c_14 Real)
(declare-const s_0 Real)
(declare-const s_1 Real)
(declare-const s_2 Real)
(declare-const s_3 Real)
(declare-const s_4 Real)
(declare-const s_5 Real)
(declare-const s_6 Real)
(declare-const s_7 Real)
(declare-const s_8 Real)
(declare-const s_9 Real)
(declare-const s_10 Real)
(declare-const s_11 Real)
(declare-const s_12 Real)
(declare-const s_13 Real)
(declare-const s_14 Real)
(assert (forall ((v1 Real) (v2 Real) (m Real) (n Real) ) (=> (and (>= (+ (* 1024 1) (* 1 v1 ) ) 0) (>= (+ (* 1023 1) (* (- 1) v1 ) ) 0) (>= (+ (* 1024 1) (* 1 v2 ) ) 0) (>= (+ (* 1023 1) (* (- 1) v2 ) ) 0) (>= (+ (* 1024 1) (* 1 m ) ) 0) (>= (+ (* 1023 1) (* (- 1) m ) ) 0) (>= (+ (* 1024 1) (* 1 n ) ) 0) (>= (+ (* 1023 1) (* (- 1) n ) ) 0) ) (>= (+ (* 1 m s_1 ) (* 1 n s_2 ) (* 1 s_0 ) (* 1 s_3 v1 ) (* 1 s_4 v2 ) ) 0) )))
(assert (forall ((v1 Real) (v2 Real) (m Real) (n Real) ) (=> (and (>= (+ (* 1024 1) (* 1 v1 ) ) 0) (>= (+ (* 1023 1) (* (- 1) v1 ) ) 0) (>= (+ (* 1024 1) (* 1 v2 ) ) 0) (>= (+ (* 1023 1) (* (- 1) v2 ) ) 0) (>= (+ (* 1024 1) (* 1 m ) ) 0) (>= (+ (* 1023 1) (* (- 1) m ) ) 0) (>= (+ (* 1024 1) (* 1 n ) ) 0) (>= (+ (* 1023 1) (* (- 1) n ) ) 0) ) (>= (+ (* 1 c_0 ) (* 1 c_1 m ) (* 1 c_2 n ) (* 1 c_3 v1 ) (* 1 c_4 v2 ) ) 0) )))
(assert (forall ((v1 Real) (v2 Real) (m Real) (n Real) ) (=> (and (>= (* 1 n ) 0) (>= (+ (* (- 1) 1) (* 1 m ) ) 0) (>= (+ (* 1024 1) (* 1 v1 ) ) 0) (>= (+ (* 1024 1) (* 1 v2 ) ) 0) (>= (+ (* 1024 1) (* 1 m ) ) 0) (>= (+ (* 1024 1) (* 1 n ) ) 0) (>= (+ (* 1023 1) (* (- 1) n ) ) 0) (>= (+ (* 1023 1) (* (- 1) m ) ) 0) (>= (+ (* 1023 1) (* (- 1) v2 ) ) 0) (>= (+ (* 1023 1) (* (- 1) v1 ) ) 0) (>= (+ (* 1 m s_1 ) (* 1 n s_2 ) (* 1 s_0 ) (* 1 s_3 v1 ) (* 1 s_4 v2 ) ) 0) ) (>= (+ (* 1 m s_6 ) (* 1 n s_7 ) (* 1 n s_8 ) (* 1 s_5 ) ) 0) )))
(assert (forall ((v1 Real) (v2 Real) (m Real) (n Real) ) (=> (and (>= (* 1 n ) 0) (>= (+ (* (- 1) 1) (* 1 m ) ) 0) (>= (+ (* 1024 1) (* 1 v1 ) ) 0) (>= (+ (* 1024 1) (* 1 v2 ) ) 0) (>= (+ (* 1024 1) (* 1 m ) ) 0) (>= (+ (* 1024 1) (* 1 n ) ) 0) (>= (+ (* 1023 1) (* (- 1) n ) ) 0) (>= (+ (* 1023 1) (* (- 1) m ) ) 0) (>= (+ (* 1023 1) (* (- 1) v2 ) ) 0) (>= (+ (* 1023 1) (* (- 1) v1 ) ) 0) (>= (+ (* 1 m s_1 ) (* 1 n s_2 ) (* 1 s_0 ) (* 1 s_3 v1 ) (* 1 s_4 v2 ) ) 0) ) (>= (+ (* 1 c_5 ) (* 1 c_6 m ) (* 1 c_7 n ) (* 1 c_8 n ) ) 0) )))
(assert (forall ((v1 Real) (v2 Real) (m Real) (n Real) ) (=> (and (>= (* 1 n ) 0) (>= (+ (* (- 1) 1) (* 1 m ) ) 0) (>= (+ (* 1024 1) (* 1 v1 ) ) 0) (>= (+ (* 1024 1) (* 1 v2 ) ) 0) (>= (+ (* 1024 1) (* 1 m ) ) 0) (>= (+ (* 1024 1) (* 1 n ) ) 0) (>= (+ (* 1023 1) (* (- 1) n ) ) 0) (>= (+ (* 1023 1) (* (- 1) m ) ) 0) (>= (+ (* 1023 1) (* (- 1) v2 ) ) 0) (>= (+ (* 1023 1) (* (- 1) v1 ) ) 0) (>= (+ (* 1 m s_1 ) (* 1 n s_2 ) (* 1 s_0 ) (* 1 s_3 v1 ) (* 1 s_4 v2 ) ) 0) ) (>= (+ (* (- 1) 1) (* 1 c_0 ) (* 1 c_1 m ) (* 1 c_2 n ) (* 1 c_3 v1 ) (* 1 c_4 v2 ) (* (- 1) c_5 ) (* (- 1) c_6 m ) (* (- 1) c_7 n ) (* (- 1) c_8 n ) ) 0) )))
(assert (forall ((v1 Real) (v2 Real) (m Real) (n Real) ) (=> (and (>= (+ (* (- 1) 1) (* (- 1) n ) ) 0) (>= (+ (* 1024 1) (* 1 v1 ) ) 0) (>= (+ (* 1024 1) (* 1 v2 ) ) 0) (>= (+ (* 1024 1) (* 1 m ) ) 0) (>= (+ (* 1024 1) (* 1 n ) ) 0) (>= (+ (* 1023 1) (* (- 1) n ) ) 0) (>= (+ (* 1023 1) (* (- 1) m ) ) 0) (>= (+ (* 1023 1) (* (- 1) v2 ) ) 0) (>= (+ (* 1023 1) (* (- 1) v1 ) ) 0) (>= (+ (* 1 m s_1 ) (* 1 n s_2 ) (* 1 s_0 ) (* 1 s_3 v1 ) (* 1 s_4 v2 ) ) 0) ) (>= (+ (* 1 m s_11 ) (* 1 n s_12 ) (* 1 s_10 ) (* 1 s_13 v1 ) (* 1 s_14 v2 ) ) 0) )))
(assert (forall ((v1 Real) (v2 Real) (m Real) (n Real) ) (=> (and (>= (+ (* (- 1) 1) (* (- 1) n ) ) 0) (>= (+ (* 1024 1) (* 1 v1 ) ) 0) (>= (+ (* 1024 1) (* 1 v2 ) ) 0) (>= (+ (* 1024 1) (* 1 m ) ) 0) (>= (+ (* 1024 1) (* 1 n ) ) 0) (>= (+ (* 1023 1) (* (- 1) n ) ) 0) (>= (+ (* 1023 1) (* (- 1) m ) ) 0) (>= (+ (* 1023 1) (* (- 1) v2 ) ) 0) (>= (+ (* 1023 1) (* (- 1) v1 ) ) 0) (>= (+ (* 1 m s_1 ) (* 1 n s_2 ) (* 1 s_0 ) (* 1 s_3 v1 ) (* 1 s_4 v2 ) ) 0) ) (>= (+ (* 1 c_10 ) (* 1 c_11 m ) (* 1 c_12 n ) (* 1 c_13 v1 ) (* 1 c_14 v2 ) ) 0) )))
(assert (forall ((v1 Real) (v2 Real) (m Real) (n Real) ) (=> (and (>= (* (- 1) m ) 0) (>= (+ (* 1024 1) (* 1 v1 ) ) 0) (>= (+ (* 1024 1) (* 1 v2 ) ) 0) (>= (+ (* 1024 1) (* 1 m ) ) 0) (>= (+ (* 1024 1) (* 1 n ) ) 0) (>= (+ (* 1023 1) (* (- 1) n ) ) 0) (>= (+ (* 1023 1) (* (- 1) m ) ) 0) (>= (+ (* 1023 1) (* (- 1) v2 ) ) 0) (>= (+ (* 1023 1) (* (- 1) v1 ) ) 0) (>= (+ (* 1 m s_1 ) (* 1 n s_2 ) (* 1 s_0 ) (* 1 s_3 v1 ) (* 1 s_4 v2 ) ) 0) ) (>= (+ (* 1 m s_11 ) (* 1 n s_12 ) (* 1 s_10 ) (* 1 s_13 v1 ) (* 1 s_14 v2 ) ) 0) )))
(assert (forall ((v1 Real) (v2 Real) (m Real) (n Real) ) (=> (and (>= (* (- 1) m ) 0) (>= (+ (* 1024 1) (* 1 v1 ) ) 0) (>= (+ (* 1024 1) (* 1 v2 ) ) 0) (>= (+ (* 1024 1) (* 1 m ) ) 0) (>= (+ (* 1024 1) (* 1 n ) ) 0) (>= (+ (* 1023 1) (* (- 1) n ) ) 0) (>= (+ (* 1023 1) (* (- 1) m ) ) 0) (>= (+ (* 1023 1) (* (- 1) v2 ) ) 0) (>= (+ (* 1023 1) (* (- 1) v1 ) ) 0) (>= (+ (* 1 m s_1 ) (* 1 n s_2 ) (* 1 s_0 ) (* 1 s_3 v1 ) (* 1 s_4 v2 ) ) 0) ) (>= (+ (* 1 c_10 ) (* 1 c_11 m ) (* 1 c_12 n ) (* 1 c_13 v1 ) (* 1 c_14 v2 ) ) 0) )))
(assert (forall ((v1 Real) (v2 Real) (m Real) (n Real) ) (=> (and (>= (+ (* (- 1) 1) (* 1 m ) (* (- 1) v2 ) ) 0) (>= (+ (* (- 1) 1) (* 1 v1 ) ) 0) (>= (+ (* 1 n ) (* (- 1) v1 ) (* (- 1) v2 ) ) 0) (>= (+ (* 1023 1) (* (- 1) n ) ) 0) (>= (* 1 n ) 0) (>= (+ (* (- 1) 1) (* 1 m ) ) 0) (>= (* 1 v2 ) 0) (>= (+ (* 1 m s_6 ) (* 1 n s_7 ) (* 1 s_5 ) (* 1 s_8 v1 ) (* 1 s_9 v2 ) ) 0) ) (>= (+ (* 1 m s_6 ) (* 1 n s_7 ) (* 1 s_5 ) (* (- 1) s_8 ) (* 1 s_8 v1 ) (* 1 s_9 ) (* 1 s_9 v2 ) ) 0) )))
(assert (forall ((v1 Real) (v2 Real) (m Real) (n Real) ) (=> (and (>= (+ (* (- 1) 1) (* 1 m ) (* (- 1) v2 ) ) 0) (>= (+ (* (- 1) 1) (* 1 v1 ) ) 0) (>= (+ (* 1 n ) (* (- 1) v1 ) (* (- 1) v2 ) ) 0) (>= (+ (* 1023 1) (* (- 1) n ) ) 0) (>= (* 1 n ) 0) (>= (+ (* (- 1) 1) (* 1 m ) ) 0) (>= (* 1 v2 ) 0) (>= (+ (* 1 m s_6 ) (* 1 n s_7 ) (* 1 s_5 ) (* 1 s_8 v1 ) (* 1 s_9 v2 ) ) 0) ) (>= (+ (* 1 c_5 ) (* 1 c_6 m ) (* 1 c_7 n ) (* (- 1) c_8 ) (* 1 c_8 v1 ) (* 1 c_9 ) (* 1 c_9 v2 ) ) 0) )))
(assert (forall ((v1 Real) (v2 Real) (m Real) (n Real) ) (=> (and (>= (+ (* (- 1) 1) (* 1 m ) (* (- 1) v2 ) ) 0) (>= (+ (* (- 1) 1) (* 1 v1 ) ) 0) (>= (+ (* 1 n ) (* (- 1) v1 ) (* (- 1) v2 ) ) 0) (>= (+ (* 1023 1) (* (- 1) n ) ) 0) (>= (* 1 n ) 0) (>= (+ (* (- 1) 1) (* 1 m ) ) 0) (>= (* 1 v2 ) 0) (>= (+ (* 1 m s_6 ) (* 1 n s_7 ) (* 1 s_5 ) (* 1 s_8 v1 ) (* 1 s_9 v2 ) ) 0) ) (>= (+ (* (- 1) 1) (* 1 c_8 ) (* (- 1) c_9 ) ) 0) )))
(assert (forall ((v1 Real) (v2 Real) (m Real) (n Real) ) (=> (and (>= (+ (* (- 1) m ) (* 1 v2 ) ) 0) (>= (+ (* (- 1) 1) (* 1 v1 ) ) 0) (>= (+ (* 1 n ) (* (- 1) v1 ) (* (- 1) v2 ) ) 0) (>= (+ (* 1023 1) (* (- 1) n ) ) 0) (>= (* 1 n ) 0) (>= (+ (* (- 1) 1) (* 1 m ) ) 0) (>= (* 1 v2 ) 0) (>= (+ (* 1 m s_6 ) (* 1 n s_7 ) (* 1 s_5 ) (* 1 s_8 v1 ) (* 1 s_9 v2 ) ) 0) ) (>= (+ (* 1 m s_6 ) (* 1 n s_7 ) (* 1 s_5 ) (* 1 s_8 v1 ) ) 0) )))
(assert (forall ((v1 Real) (v2 Real) (m Real) (n Real) ) (=> (and (>= (+ (* (- 1) m ) (* 1 v2 ) ) 0) (>= (+ (* (- 1) 1) (* 1 v1 ) ) 0) (>= (+ (* 1 n ) (* (- 1) v1 ) (* (- 1) v2 ) ) 0) (>= (+ (* 1023 1) (* (- 1) n ) ) 0) (>= (* 1 n ) 0) (>= (+ (* (- 1) 1) (* 1 m ) ) 0) (>= (* 1 v2 ) 0) (>= (+ (* 1 m s_6 ) (* 1 n s_7 ) (* 1 s_5 ) (* 1 s_8 v1 ) (* 1 s_9 v2 ) ) 0) ) (>= (+ (* 1 c_5 ) (* 1 c_6 m ) (* 1 c_7 n ) (* 1 c_8 v1 ) ) 0) )))
(assert (forall ((v1 Real) (v2 Real) (m Real) (n Real) ) (=> (and (>= (+ (* (- 1) m ) (* 1 v2 ) ) 0) (>= (+ (* (- 1) 1) (* 1 v1 ) ) 0) (>= (+ (* 1 n ) (* (- 1) v1 ) (* (- 1) v2 ) ) 0) (>= (+ (* 1023 1) (* (- 1) n ) ) 0) (>= (* 1 n ) 0) (>= (+ (* (- 1) 1) (* 1 m ) ) 0) (>= (* 1 v2 ) 0) (>= (+ (* 1 m s_6 ) (* 1 n s_7 ) (* 1 s_5 ) (* 1 s_8 v1 ) (* 1 s_9 v2 ) ) 0) ) (>= (+ (* (- 1) 1) (* 1 c_9 v2 ) ) 0) )))
(assert (forall ((v1 Real) (v2 Real) (m Real) (n Real) ) (=> (and (>= (* (- 1) v1 ) 0) (>= (+ (* 1 n ) (* (- 1) v1 ) (* (- 1) v2 ) ) 0) (>= (+ (* 1023 1) (* (- 1) n ) ) 0) (>= (* 1 n ) 0) (>= (+ (* (- 1) 1) (* 1 m ) ) 0) (>= (* 1 v2 ) 0) (>= (+ (* 1 m s_6 ) (* 1 n s_7 ) (* 1 s_5 ) (* 1 s_8 v1 ) (* 1 s_9 v2 ) ) 0) ) (>= (+ (* 1 m s_11 ) (* 1 n s_12 ) (* 1 s_10 ) (* 1 s_13 v1 ) (* 1 s_14 v2 ) ) 0) )))
(assert (forall ((v1 Real) (v2 Real) (m Real) (n Real) ) (=> (and (>= (* (- 1) v1 ) 0) (>= (+ (* 1 n ) (* (- 1) v1 ) (* (- 1) v2 ) ) 0) (>= (+ (* 1023 1) (* (- 1) n ) ) 0) (>= (* 1 n ) 0) (>= (+ (* (- 1) 1) (* 1 m ) ) 0) (>= (* 1 v2 ) 0) (>= (+ (* 1 m s_6 ) (* 1 n s_7 ) (* 1 s_5 ) (* 1 s_8 v1 ) (* 1 s_9 v2 ) ) 0) ) (>= (+ (* 1 c_10 ) (* 1 c_11 m ) (* 1 c_12 n ) (* 1 c_13 v1 ) (* 1 c_14 v2 ) ) 0) )))

(check-sat)
(get-model)
